objective value:                                 -356
phiSFC_2                                            1 	(obj:-100)
phiLink_s0_(0,_1)_(12,_9)                           1 	(obj:1)
phiLink_s0_(1,_2)_(9,_10)                           1 	(obj:1)
phiLink_s0_(2,_3)_(10,_8)                           1 	(obj:1)
phiLink_s0_(3,_4)_(8,_7)                            1 	(obj:1)
phiLink_s0_(4,_5)_(7,_11)                           1 	(obj:1)
phiLink_s0_(5,_6)_(11,_3)                           1 	(obj:1)
phiLink_s1_(0,_1)_(5,_1)                            1 	(obj:1)
phiLink_s1_(1,_2)_(1,_10)                           1 	(obj:1)
phiLink_s1_(2,_3)_(10,_0)                           1 	(obj:1)
phiLink_s1_(3,_4)_(0,_3)                            1 	(obj:1)
phiLink_s2_(0,_1)_(6,_5)                            1 	(obj:1)
phiLink_s2_(1,_2)_(5,_12)                           1 	(obj:1)
phiLink_s2_(2,_3)_(12,_10)                          1 	(obj:1)
phiLink_s2_(3,_4)_(10,_2)                           1 	(obj:1)
phiLink_s2_(4,_5)_(2,_3)                            1 	(obj:1)
phiLink_s3_(0,_1)_(2,_5)                            1 	(obj:1)
phiLink_s3_(1,_2)_(5,_7)                            1 	(obj:1)
phiLink_s3_(2,_3)_(7,_9)                            1 	(obj:1)
phiLink_s3_(3,_4)_(9,_0)                            1 	(obj:1)
phiLink_s3_(4,_5)_(0,_8)                            1 	(obj:1)
phiNode_s0_0_12                                     1 	(obj:1)
phiNode_s0_1_9                                      1 	(obj:1)
phiNode_s0_2_10                                     1 	(obj:1)
phiNode_s0_3_8                                      1 	(obj:1)
phiNode_s0_4_7                                      1 	(obj:1)
phiNode_s0_5_11                                     1 	(obj:1)
phiNode_s0_6_3                                      1 	(obj:1)
phiNode_s1_0_5                                      1 	(obj:1)
phiNode_s1_1_1                                      1 	(obj:1)
phiNode_s1_2_10                                     1 	(obj:1)
phiNode_s1_3_0                                      1 	(obj:1)
phiNode_s1_4_3                                      1 	(obj:1)
phiNode_s2_0_6                                      1 	(obj:1)
phiNode_s2_1_5                                      1 	(obj:1)
phiNode_s2_2_12                                     1 	(obj:1)
phiNode_s2_3_10                                     1 	(obj:1)
phiNode_s2_4_2                                      1 	(obj:1)
phiNode_s2_5_3                                      1 	(obj:1)
phiNode_s3_0_2                                      1 	(obj:1)
phiNode_s3_1_5                                      1 	(obj:1)
phiNode_s3_2_7                                      1 	(obj:1)
phiNode_s3_3_9                                      1 	(obj:1)
phiNode_s3_4_0                                      1 	(obj:1)
phiNode_s3_5_8                                      1 	(obj:1)
phiSFC_0                                            1 	(obj:-100)
phiSFC_1                                            1 	(obj:-100)
phiSFC_3                                            1 	(obj:-100)
